benchmark/results/graph__15-1000-0.10-04_1/graph__15-1000-0.10-04_1_QuintonOs_Benders_primal_sub.lp
\ This file has been generated by DOcplex
\ ENCODING=ISO-8859-1
\Problem name: Quinton Bounded Benders_primal_sub

Maximize
 obj: tau
Subject To
 c1: tau <= 0.000967117988
 c2: y_a0_proc_0 + y_a0_proc_2 - tau = 0
 c3: y_a0_proc_0 <= 0
 c4: y_a0_proc_2 <= 1
 c5: tau <= 0.001242236025
 c6: y_a1_proc_0 + y_a1_proc_1 + y_a1_proc_2 + y_a1_proc_3 - tau = 0
 c7: y_a1_proc_0 <= 0
 c8: y_a1_proc_1 <= 0
 c9: y_a1_proc_2 <= 1
 c10: y_a1_proc_3 <= 0
 c11: tau <= 0.000794912560
 c12: y_a2_proc_0 + y_a2_proc_1 + y_a2_proc_3 - tau = 0
 c13: y_a2_proc_0 <= 0
 c14: y_a2_proc_1 <= 1
 c15: y_a2_proc_3 <= 0
 c16: tau <= 0.001209189843
 c17: y_a3_proc_0 + y_a3_proc_1 + y_a3_proc_2 + y_a3_proc_3 - tau = 0
 c18: y_a3_proc_0 <= 1
 c19: y_a3_proc_1 <= 0
 c20: y_a3_proc_2 <= 0
 c21: y_a3_proc_3 <= 0
 c22: tau <= 0.001154734411
 c23: y_a4_proc_1 + y_a4_proc_2 + y_a4_proc_3 - tau = 0
 c24: y_a4_proc_1 <= 0
 c25: y_a4_proc_2 <= 0
 c26: y_a4_proc_3 <= 1
 c27: tau <= 0.001324503311
 c28: y_a5_proc_0 + y_a5_proc_1 + y_a5_proc_2 - tau = 0
 c29: y_a5_proc_0 <= 0
 c30: y_a5_proc_1 <= 1
 c31: y_a5_proc_2 <= 0
 c32: tau <= 0.001930501931
 c33: y_a6_proc_0 + y_a6_proc_1 + y_a6_proc_3 - tau = 0
 c34: y_a6_proc_0 <= 0
 c35: y_a6_proc_1 <= 0
 c36: y_a6_proc_3 <= 1
 c37: tau <= 0.002024291498
 c38: y_a7_proc_0 + y_a7_proc_1 + y_a7_proc_2 + y_a7_proc_3 - tau = 0
 c39: y_a7_proc_0 <= 0
 c40: y_a7_proc_1 <= 0
 c41: y_a7_proc_2 <= 1
 c42: y_a7_proc_3 <= 0
 c43: tau <= 0.003921568627
 c44: y_a8_proc_0 + y_a8_proc_1 + y_a8_proc_2 + y_a8_proc_3 - tau = 0
 c45: y_a8_proc_0 <= 0
 c46: y_a8_proc_1 <= 0
 c47: y_a8_proc_2 <= 1
 c48: y_a8_proc_3 <= 0
 c49: tau <= 0.002777777778
 c50: y_a9_proc_0 + y_a9_proc_1 + y_a9_proc_2 + y_a9_proc_3 - tau = 0
 c51: y_a9_proc_0 <= 1
 c52: y_a9_proc_1 <= 0
 c53: y_a9_proc_2 <= 0
 c54: y_a9_proc_3 <= 0
 c55: tau <= 0.000884955752
 c56: y_a10_proc_0 + y_a10_proc_1 + y_a10_proc_2 + y_a10_proc_3 - tau = 0
 c57: y_a10_proc_0 <= 0
 c58: y_a10_proc_1 <= 1
 c59: y_a10_proc_2 <= 0
 c60: y_a10_proc_3 <= 0
 c61: tau <= 0.001818181818
 c62: y_a11_proc_0 + y_a11_proc_1 + y_a11_proc_2 + y_a11_proc_3 - tau = 0
 c63: y_a11_proc_0 <= 0
 c64: y_a11_proc_1 <= 0
 c65: y_a11_proc_2 <= 0
 c66: y_a11_proc_3 <= 1
 c67: tau <= 0.001508295626
 c68: y_a12_proc_0 + y_a12_proc_1 + y_a12_proc_2 + y_a12_proc_3 - tau = 0
 c69: y_a12_proc_0 <= 0
 c70: y_a12_proc_1 <= 0
 c71: y_a12_proc_2 <= 0
 c72: y_a12_proc_3 <= 1
 c73: tau <= 0.001383125864
 c74: y_a13_proc_0 + y_a13_proc_1 + y_a13_proc_2 + y_a13_proc_3 - tau = 0
 c75: y_a13_proc_0 <= 1
 c76: y_a13_proc_1 <= 0
 c77: y_a13_proc_2 <= 0
 c78: y_a13_proc_3 <= 0
 c79: tau <= 0.000827129859
 c80: y_a14_proc_1 + y_a14_proc_2 + y_a14_proc_3 - tau = 0
 c81: y_a14_proc_1 <= 1
 c82: y_a14_proc_2 <= 0
 c83: y_a14_proc_3 <= 0
 c84: u_a0 - u_a1 - 1208 y_a1_proc_0 - 1189 y_a1_proc_1 - 805 y_a1_proc_2
      - 593 y_a1_proc_3 >= 0
 c85: u_a2 - u_a0 - 1122 y_a0_proc_0 - 1034 y_a0_proc_2 >= 0
 c86: u_a1 - u_a3 - 827 y_a3_proc_0 - 1284 y_a3_proc_1 - 760 y_a3_proc_2
      - 911 y_a3_proc_3 >= 0
 c87: u_a4 - u_a2 - 937 y_a2_proc_0 - 1258 y_a2_proc_1 - 330 y_a2_proc_3 >= -2
 c88: u_a5 - u_a4 - 801 y_a4_proc_1 - 783 y_a4_proc_2 - 866 y_a4_proc_3 >= 0
 c89: u_a6 - u_a5 - 831 y_a5_proc_0 - 755 y_a5_proc_1 - 1157 y_a5_proc_2 >= 0
 c90: u_a7 - u_a6 - 1100 y_a6_proc_0 - 917 y_a6_proc_1 - 518 y_a6_proc_3 >= 0
 c91: u_a0 - u_a8 - 741 y_a8_proc_0 - 486 y_a8_proc_1 - 255 y_a8_proc_2
      - 1226 y_a8_proc_3 >= 0
 c92: u_a5 - u_a9 - 360 y_a9_proc_0 - 910 y_a9_proc_1 - 860 y_a9_proc_2
      - 843 y_a9_proc_3 >= 0
 c93: u_a10 - u_a6 - 1100 y_a6_proc_0 - 917 y_a6_proc_1 - 518 y_a6_proc_3 >= -1
 c94: u_a8 - u_a11 - 760 y_a11_proc_0 - 863 y_a11_proc_1 - 1117 y_a11_proc_2
      - 550 y_a11_proc_3 >= 0
 c95: u_a4 - u_a12 - 1118 y_a12_proc_0 - 1231 y_a12_proc_1 - 751 y_a12_proc_2
      - 663 y_a12_proc_3 >= 0
 c96: u_a11 - u_a13 - 723 y_a13_proc_0 - 742 y_a13_proc_1 - 812 y_a13_proc_2
      - 1073 y_a13_proc_3 >= 0
 c97: u_a14 - u_a10 - 1285 y_a10_proc_0 - 1130 y_a10_proc_1 - 707 y_a10_proc_2
      - 940 y_a10_proc_3 >= 0
 c98: u_a8 - u_a14 - 1209 y_a14_proc_1 - 587 y_a14_proc_2 - 814 y_a14_proc_3
       >= 0
 c99: u_a13 - u_a7 - 602 y_a7_proc_0 - 1088 y_a7_proc_1 - 494 y_a7_proc_2
      - 757 y_a7_proc_3 >= -1
 c100: u_a12 - u_a11 - 760 y_a11_proc_0 - 863 y_a11_proc_1 - 1117 y_a11_proc_2
       - 550 y_a11_proc_3 >= 0
 c101: u_a3 - u_a12 - 1118 y_a12_proc_0 - 1231 y_a12_proc_1 - 751 y_a12_proc_2
       - 663 y_a12_proc_3 >= 0
 c102: u_a3 - u_a8 - 741 y_a8_proc_0 - 486 y_a8_proc_1 - 255 y_a8_proc_2
       - 1226 y_a8_proc_3 >= 0
 c103: u_a3 - u_a14 - 1209 y_a14_proc_1 - 587 y_a14_proc_2 - 814 y_a14_proc_3
        >= 0
 c104: u_a1 - u_a9 - 360 y_a9_proc_0 - 910 y_a9_proc_1 - 860 y_a9_proc_2
       - 843 y_a9_proc_3 >= 0
 c105: u_a13 - u_a6 - 1100 y_a6_proc_0 - 917 y_a6_proc_1 - 518 y_a6_proc_3 >= 
       -1
 c106: u_a2 - u_a5 - 831 y_a5_proc_0 - 755 y_a5_proc_1 - 1157 y_a5_proc_2 >= 0
 c107: u_a1 - u_a0 - 1122 y_a0_proc_0 >= -2571
 c108: u_a1 - u_a0 - 1034 y_a0_proc_2 >= -1
 c109: u_a0 - u_a1 - 1208 y_a1_proc_0 >= -2570
 c110: u_a0 - u_a1 - 805 y_a1_proc_2 >= 0
 c111: u_a2 - u_a0 - 1122 y_a0_proc_0 >= -2589
 c112: u_a0 - u_a2 - 937 y_a2_proc_0 >= -2552
 c113: u_a3 - u_a0 - 1122 y_a0_proc_0 >= -1304
 c114: u_a3 - u_a0 - 1034 y_a0_proc_2 >= -1304
 c115: u_a0 - u_a3 - 827 y_a3_proc_0 >= -1267
 c116: u_a0 - u_a3 - 760 y_a3_proc_2 >= -1267
 c117: u_a4 - u_a0 - 1034 y_a0_proc_2 >= -1304
 c118: u_a0 - u_a4 - 783 y_a4_proc_2 >= -1267
 c119: u_a5 - u_a0 - 1122 y_a0_proc_0 >= -2589
 c120: u_a5 - u_a0 - 1034 y_a0_proc_2 >= -1304
 c121: u_a0 - u_a5 - 831 y_a5_proc_0 >= -2552
 c122: u_a0 - u_a5 - 1157 y_a5_proc_2 >= -1267
 c123: u_a6 - u_a0 - 1122 y_a0_proc_0 >= -2589
 c124: u_a0 - u_a6 - 1100 y_a6_proc_0 >= -2552
 c125: u_a7 - u_a0 - 1122 y_a0_proc_0 >= -2571
 c126: u_a7 - u_a0 - 1034 y_a0_proc_2 >= -1
 c127: u_a0 - u_a7 - 602 y_a7_proc_0 >= -2570
 c128: u_a0 - u_a7 - 494 y_a7_proc_2 >= 0
 c129: u_a8 - u_a0 - 1122 y_a0_proc_0 >= -2571
 c130: u_a8 - u_a0 - 1034 y_a0_proc_2 >= -1
 c131: u_a0 - u_a8 - 741 y_a8_proc_0 >= -2570
 c132: u_a0 - u_a8 - 255 y_a8_proc_2 >= 0
 c133: u_a9 - u_a0 - 1122 y_a0_proc_0 >= -1267
 c134: u_a9 - u_a0 - 1034 y_a0_proc_2 >= -1267
 c135: u_a0 - u_a9 - 360 y_a9_proc_0 >= -1304
 c136: u_a0 - u_a9 - 860 y_a9_proc_2 >= -1304
 c137: u_a10 - u_a0 - 1122 y_a0_proc_0 >= -2589
 c138: u_a10 - u_a0 - 1034 y_a0_proc_2 >= -1304
 c139: u_a0 - u_a10 - 1285 y_a10_proc_0 >= -2552
 c140: u_a0 - u_a10 - 707 y_a10_proc_2 >= -1267
 c141: u_a11 - u_a0 - 1122 y_a0_proc_0 >= -2589
 c142: u_a11 - u_a0 - 1034 y_a0_proc_2 >= -1304
 c143: u_a0 - u_a11 - 760 y_a11_proc_0 >= -2552
 c144: u_a0 - u_a11 - 1117 y_a11_proc_2 >= -1267
 c145: u_a12 - u_a0 - 1122 y_a0_proc_0 >= -2589
 c146: u_a12 - u_a0 - 1034 y_a0_proc_2 >= -1304
 c147: u_a0 - u_a12 - 1118 y_a12_proc_0 >= -2552
 c148: u_a0 - u_a12 - 751 y_a12_proc_2 >= -1267
 c149: u_a13 - u_a0 - 1122 y_a0_proc_0 >= -1267
 c150: u_a13 - u_a0 - 1034 y_a0_proc_2 >= -1267
 c151: u_a0 - u_a13 - 723 y_a13_proc_0 >= -1304
 c152: u_a0 - u_a13 - 812 y_a13_proc_2 >= -1304
 c153: u_a14 - u_a0 - 1034 y_a0_proc_2 >= -1304
 c154: u_a0 - u_a14 - 587 y_a14_proc_2 >= -1267
 c155: u_a2 - u_a1 - 1208 y_a1_proc_0 >= -2552
 c156: u_a2 - u_a1 - 593 y_a1_proc_3 >= -2552
 c157: u_a2 - u_a1 - 1189 y_a1_proc_1 >= -1267
 c158: u_a1 - u_a2 - 937 y_a2_proc_0 >= -2589
 c159: u_a1 - u_a2 - 330 y_a2_proc_3 >= -2589
 c160: u_a1 - u_a2 - 1258 y_a2_proc_1 >= -1304
 c161: u_a3 - u_a1 - 1208 y_a1_proc_0 >= -1304
 c162: u_a3 - u_a1 - 805 y_a1_proc_2 >= -1304
 c163: u_a3 - u_a1 - 593 y_a1_proc_3 >= -2589
 c164: u_a3 - u_a1 - 1189 y_a1_proc_1 >= -2589
 c165: u_a1 - u_a3 - 827 y_a3_proc_0 >= -1267
 c166: u_a1 - u_a3 - 760 y_a3_proc_2 >= -1267
 c167: u_a1 - u_a3 - 911 y_a3_proc_3 >= -2552
 c168: u_a1 - u_a3 - 1284 y_a3_proc_1 >= -2552
 c169: u_a4 - u_a1 - 805 y_a1_proc_2 >= -1304
 c170: u_a4 - u_a1 - 593 y_a1_proc_3 >= -1304
 c171: u_a4 - u_a1 - 1189 y_a1_proc_1 >= -2589
 c172: u_a1 - u_a4 - 783 y_a4_proc_2 >= -1267
 c173: u_a1 - u_a4 - 866 y_a4_proc_3 >= -1267
 c174: u_a1 - u_a4 - 801 y_a4_proc_1 >= -2552
 c175: u_a5 - u_a1 - 1208 y_a1_proc_0 >= -2589
 c176: u_a5 - u_a1 - 805 y_a1_proc_2 >= -1304
 c177: u_a5 - u_a1 - 1189 y_a1_proc_1 >= -1304
 c178: u_a1 - u_a5 - 831 y_a5_proc_0 >= -2552
 c179: u_a1 - u_a5 - 1157 y_a5_proc_2 >= -1267
 c180: u_a1 - u_a5 - 755 y_a5_proc_1 >= -1267
 c181: u_a6 - u_a1 - 1208 y_a1_proc_0 >= -2589
 c182: u_a6 - u_a1 - 593 y_a1_proc_3 >= -1304
 c183: u_a6 - u_a1 - 1189 y_a1_proc_1 >= -2589
 c184: u_a1 - u_a6 - 1100 y_a6_proc_0 >= -2552
 c185: u_a1 - u_a6 - 518 y_a6_proc_3 >= -1267
 c186: u_a1 - u_a6 - 917 y_a6_proc_1 >= -2552
 c187: u_a7 - u_a1 - 1208 y_a1_proc_0 >= -2571
 c188: u_a7 - u_a1 - 805 y_a1_proc_2 >= -1
 c189: u_a7 - u_a1 - 593 y_a1_proc_3 >= -2571
 c190: u_a7 - u_a1 - 1189 y_a1_proc_1 >= -2571
 c191: u_a1 - u_a7 - 602 y_a7_proc_0 >= -2570
 c192: u_a1 - u_a7 - 494 y_a7_proc_2 >= 0
 c193: u_a1 - u_a7 - 757 y_a7_proc_3 >= -2570
 c194: u_a1 - u_a7 - 1088 y_a7_proc_1 >= -2570
 c195: u_a8 - u_a1 - 1208 y_a1_proc_0 >= -2571
 c196: u_a8 - u_a1 - 805 y_a1_proc_2 >= -1
 c197: u_a8 - u_a1 - 593 y_a1_proc_3 >= -2571
 c198: u_a8 - u_a1 - 1189 y_a1_proc_1 >= -2571
 c199: u_a1 - u_a8 - 741 y_a8_proc_0 >= -2570
 c200: u_a1 - u_a8 - 255 y_a8_proc_2 >= 0
 c201: u_a1 - u_a8 - 1226 y_a8_proc_3 >= -2570
 c202: u_a1 - u_a8 - 486 y_a8_proc_1 >= -2570
 c203: u_a9 - u_a1 - 1208 y_a1_proc_0 >= -1304
 c204: u_a9 - u_a1 - 805 y_a1_proc_2 >= -1304
 c205: u_a9 - u_a1 - 593 y_a1_proc_3 >= -2589
 c206: u_a9 - u_a1 - 1189 y_a1_proc_1 >= -2589
 c207: u_a1 - u_a9 - 360 y_a9_proc_0 >= -1267
 c208: u_a1 - u_a9 - 860 y_a9_proc_2 >= -1267
 c209: u_a1 - u_a9 - 843 y_a9_proc_3 >= -2552
 c210: u_a1 - u_a9 - 910 y_a9_proc_1 >= -2552
 c211: u_a10 - u_a1 - 1208 y_a1_proc_0 >= -2589
 c212: u_a10 - u_a1 - 805 y_a1_proc_2 >= -1304
 c213: u_a10 - u_a1 - 593 y_a1_proc_3 >= -2589
 c214: u_a10 - u_a1 - 1189 y_a1_proc_1 >= -1304
 c215: u_a1 - u_a10 - 1285 y_a10_proc_0 >= -2552
 c216: u_a1 - u_a10 - 707 y_a10_proc_2 >= -1267
 c217: u_a1 - u_a10 - 940 y_a10_proc_3 >= -2552
 c218: u_a1 - u_a10 - 1130 y_a10_proc_1 >= -1267
 c219: u_a11 - u_a1 - 1208 y_a1_proc_0 >= -2589
 c220: u_a11 - u_a1 - 805 y_a1_proc_2 >= -1304
 c221: u_a11 - u_a1 - 593 y_a1_proc_3 >= -1304
 c222: u_a11 - u_a1 - 1189 y_a1_proc_1 >= -2589
 c223: u_a1 - u_a11 - 760 y_a11_proc_0 >= -2552
 c224: u_a1 - u_a11 - 1117 y_a11_proc_2 >= -1267
 c225: u_a1 - u_a11 - 550 y_a11_proc_3 >= -1267
 c226: u_a1 - u_a11 - 863 y_a11_proc_1 >= -2552
 c227: u_a12 - u_a1 - 1208 y_a1_proc_0 >= -2552
 c228: u_a12 - u_a1 - 805 y_a1_proc_2 >= -1267
 c229: u_a12 - u_a1 - 593 y_a1_proc_3 >= -1267
 c230: u_a12 - u_a1 - 1189 y_a1_proc_1 >= -2552
 c231: u_a1 - u_a12 - 1118 y_a12_proc_0 >= -2589
 c232: u_a1 - u_a12 - 751 y_a12_proc_2 >= -1304
 c233: u_a1 - u_a12 - 663 y_a12_proc_3 >= -1304
 c234: u_a1 - u_a12 - 1231 y_a12_proc_1 >= -2589
 c235: u_a13 - u_a1 - 1208 y_a1_proc_0 >= -1304
 c236: u_a13 - u_a1 - 805 y_a1_proc_2 >= -1304
 c237: u_a13 - u_a1 - 593 y_a1_proc_3 >= -2589
 c238: u_a13 - u_a1 - 1189 y_a1_proc_1 >= -2589
 c239: u_a1 - u_a13 - 723 y_a13_proc_0 >= -1267
 c240: u_a1 - u_a13 - 812 y_a13_proc_2 >= -1267
 c241: u_a1 - u_a13 - 1073 y_a13_proc_3 >= -2552
 c242: u_a1 - u_a13 - 742 y_a13_proc_1 >= -2552
 c243: u_a14 - u_a1 - 805 y_a1_proc_2 >= -1304
 c244: u_a14 - u_a1 - 593 y_a1_proc_3 >= -2589
 c245: u_a14 - u_a1 - 1189 y_a1_proc_1 >= -1304
 c246: u_a1 - u_a14 - 587 y_a14_proc_2 >= -1267
 c247: u_a1 - u_a14 - 814 y_a14_proc_3 >= -2552
 c248: u_a1 - u_a14 - 1209 y_a14_proc_1 >= -1267
 c249: u_a3 - u_a2 - 937 y_a2_proc_0 >= -1304
 c250: u_a3 - u_a2 - 330 y_a2_proc_3 >= -2589
 c251: u_a3 - u_a2 - 1258 y_a2_proc_1 >= -1304
 c252: u_a2 - u_a3 - 827 y_a3_proc_0 >= -1267
 c253: u_a2 - u_a3 - 911 y_a3_proc_3 >= -2552
 c254: u_a2 - u_a3 - 1284 y_a3_proc_1 >= -1267
 c255: u_a4 - u_a2 - 330 y_a2_proc_3 >= -1304
 c256: u_a4 - u_a2 - 1258 y_a2_proc_1 >= -1304
 c257: u_a2 - u_a4 - 866 y_a4_proc_3 >= -1267
 c258: u_a2 - u_a4 - 801 y_a4_proc_1 >= -1267
 c259: u_a5 - u_a2 - 937 y_a2_proc_0 >= -2572
 c260: u_a5 - u_a2 - 1258 y_a2_proc_1 >= -2
 c261: u_a2 - u_a5 - 831 y_a5_proc_0 >= -2569
 c262: u_a2 - u_a5 - 755 y_a5_proc_1 >= 1
 c263: u_a6 - u_a2 - 937 y_a2_proc_0 >= -2589
 c264: u_a6 - u_a2 - 330 y_a2_proc_3 >= -1304
 c265: u_a6 - u_a2 - 1258 y_a2_proc_1 >= -1304
 c266: u_a2 - u_a6 - 1100 y_a6_proc_0 >= -2552
 c267: u_a2 - u_a6 - 518 y_a6_proc_3 >= -1267
 c268: u_a2 - u_a6 - 917 y_a6_proc_1 >= -1267
 c269: u_a7 - u_a2 - 937 y_a2_proc_0 >= -2552
 c270: u_a7 - u_a2 - 330 y_a2_proc_3 >= -2552
 c271: u_a7 - u_a2 - 1258 y_a2_proc_1 >= -1267
 c272: u_a2 - u_a7 - 602 y_a7_proc_0 >= -2589
 c273: u_a2 - u_a7 - 757 y_a7_proc_3 >= -2589
 c274: u_a2 - u_a7 - 1088 y_a7_proc_1 >= -1304
 c275: u_a8 - u_a2 - 937 y_a2_proc_0 >= -2589
 c276: u_a8 - u_a2 - 330 y_a2_proc_3 >= -2589
 c277: u_a8 - u_a2 - 1258 y_a2_proc_1 >= -1304
 c278: u_a2 - u_a8 - 741 y_a8_proc_0 >= -2552
 c279: u_a2 - u_a8 - 1226 y_a8_proc_3 >= -2552
 c280: u_a2 - u_a8 - 486 y_a8_proc_1 >= -1267
 c281: u_a9 - u_a2 - 937 y_a2_proc_0 >= -1267
 c282: u_a9 - u_a2 - 330 y_a2_proc_3 >= -2552
 c283: u_a9 - u_a2 - 1258 y_a2_proc_1 >= -1267
 c284: u_a2 - u_a9 - 360 y_a9_proc_0 >= -1304
 c285: u_a2 - u_a9 - 843 y_a9_proc_3 >= -2589
 c286: u_a2 - u_a9 - 910 y_a9_proc_1 >= -1304
 c287: u_a10 - u_a2 - 937 y_a2_proc_0 >= -2572
 c288: u_a10 - u_a2 - 330 y_a2_proc_3 >= -2572
 c289: u_a10 - u_a2 - 1258 y_a2_proc_1 >= -2
 c290: u_a2 - u_a10 - 1285 y_a10_proc_0 >= -2569
 c291: u_a2 - u_a10 - 940 y_a10_proc_3 >= -2569
 c292: u_a2 - u_a10 - 1130 y_a10_proc_1 >= 1
 c293: u_a11 - u_a2 - 937 y_a2_proc_0 >= -2552
 c294: u_a11 - u_a2 - 330 y_a2_proc_3 >= -1267
 c295: u_a11 - u_a2 - 1258 y_a2_proc_1 >= -1267
 c296: u_a2 - u_a11 - 760 y_a11_proc_0 >= -2589
 c297: u_a2 - u_a11 - 550 y_a11_proc_3 >= -1304
 c298: u_a2 - u_a11 - 863 y_a11_proc_1 >= -1304
 c299: u_a12 - u_a2 - 937 y_a2_proc_0 >= -2589
 c300: u_a12 - u_a2 - 330 y_a2_proc_3 >= -1304
 c301: u_a12 - u_a2 - 1258 y_a2_proc_1 >= -1304
 c302: u_a2 - u_a12 - 1118 y_a12_proc_0 >= -2552
 c303: u_a2 - u_a12 - 663 y_a12_proc_3 >= -1267
 c304: u_a2 - u_a12 - 1231 y_a12_proc_1 >= -1267
 c305: u_a13 - u_a2 - 937 y_a2_proc_0 >= -1267
 c306: u_a13 - u_a2 - 330 y_a2_proc_3 >= -2552
 c307: u_a13 - u_a2 - 1258 y_a2_proc_1 >= -1267
 c308: u_a2 - u_a13 - 723 y_a13_proc_0 >= -1304
 c309: u_a2 - u_a13 - 1073 y_a13_proc_3 >= -2589
 c310: u_a2 - u_a13 - 742 y_a13_proc_1 >= -1304
 c311: u_a14 - u_a2 - 330 y_a2_proc_3 >= -2572
 c312: u_a14 - u_a2 - 1258 y_a2_proc_1 >= -2
 c313: u_a2 - u_a14 - 814 y_a14_proc_3 >= -2569
 c314: u_a2 - u_a14 - 1209 y_a14_proc_1 >= 1
 c315: u_a4 - u_a3 - 760 y_a3_proc_2 >= -2589
 c316: u_a4 - u_a3 - 911 y_a3_proc_3 >= -1304
 c317: u_a4 - u_a3 - 1284 y_a3_proc_1 >= -2589
 c318: u_a3 - u_a4 - 783 y_a4_proc_2 >= -2552
 c319: u_a3 - u_a4 - 866 y_a4_proc_3 >= -1267
 c320: u_a3 - u_a4 - 801 y_a4_proc_1 >= -2552
 c321: u_a5 - u_a3 - 827 y_a3_proc_0 >= -1304
 c322: u_a5 - u_a3 - 760 y_a3_proc_2 >= -2589
 c323: u_a5 - u_a3 - 1284 y_a3_proc_1 >= -1304
 c324: u_a3 - u_a5 - 831 y_a5_proc_0 >= -1267
 c325: u_a3 - u_a5 - 1157 y_a5_proc_2 >= -2552
 c326: u_a3 - u_a5 - 755 y_a5_proc_1 >= -1267
 c327: u_a6 - u_a3 - 827 y_a3_proc_0 >= -1304
 c328: u_a6 - u_a3 - 911 y_a3_proc_3 >= -1304
 c329: u_a6 - u_a3 - 1284 y_a3_proc_1 >= -2589
 c330: u_a3 - u_a6 - 1100 y_a6_proc_0 >= -1267
 c331: u_a3 - u_a6 - 518 y_a6_proc_3 >= -1267
 c332: u_a3 - u_a6 - 917 y_a6_proc_1 >= -2552
 c333: u_a7 - u_a3 - 827 y_a3_proc_0 >= -1304
 c334: u_a7 - u_a3 - 760 y_a3_proc_2 >= -1304
 c335: u_a7 - u_a3 - 911 y_a3_proc_3 >= -2589
 c336: u_a7 - u_a3 - 1284 y_a3_proc_1 >= -2589
 c337: u_a3 - u_a7 - 602 y_a7_proc_0 >= -1267
 c338: u_a3 - u_a7 - 494 y_a7_proc_2 >= -1267
 c339: u_a3 - u_a7 - 757 y_a7_proc_3 >= -2552
 c340: u_a3 - u_a7 - 1088 y_a7_proc_1 >= -2552
 c341: u_a8 - u_a3 - 827 y_a3_proc_0 >= -1304
 c342: u_a8 - u_a3 - 760 y_a3_proc_2 >= -1304
 c343: u_a8 - u_a3 - 911 y_a3_proc_3 >= -2589
 c344: u_a8 - u_a3 - 1284 y_a3_proc_1 >= -2589
 c345: u_a3 - u_a8 - 741 y_a8_proc_0 >= -1267
 c346: u_a3 - u_a8 - 255 y_a8_proc_2 >= -1267
 c347: u_a3 - u_a8 - 1226 y_a8_proc_3 >= -2552
 c348: u_a3 - u_a8 - 486 y_a8_proc_1 >= -2552
 c349: u_a9 - u_a3 - 827 y_a3_proc_0 >= -1
 c350: u_a9 - u_a3 - 760 y_a3_proc_2 >= -2571
 c351: u_a9 - u_a3 - 911 y_a3_proc_3 >= -2571
 c352: u_a9 - u_a3 - 1284 y_a3_proc_1 >= -2571
 c353: u_a3 - u_a9 - 360 y_a9_proc_0 >= 0
 c354: u_a3 - u_a9 - 860 y_a9_proc_2 >= -2570
 c355: u_a3 - u_a9 - 843 y_a9_proc_3 >= -2570
 c356: u_a3 - u_a9 - 910 y_a9_proc_1 >= -2570
 c357: u_a10 - u_a3 - 827 y_a3_proc_0 >= -1304
 c358: u_a10 - u_a3 - 760 y_a3_proc_2 >= -2589
 c359: u_a10 - u_a3 - 911 y_a3_proc_3 >= -2589
 c360: u_a10 - u_a3 - 1284 y_a3_proc_1 >= -1304
 c361: u_a3 - u_a10 - 1285 y_a10_proc_0 >= -1267
 c362: u_a3 - u_a10 - 707 y_a10_proc_2 >= -2552
 c363: u_a3 - u_a10 - 940 y_a10_proc_3 >= -2552
 c364: u_a3 - u_a10 - 1130 y_a10_proc_1 >= -1267
 c365: u_a11 - u_a3 - 827 y_a3_proc_0 >= -1304
 c366: u_a11 - u_a3 - 760 y_a3_proc_2 >= -2589
 c367: u_a11 - u_a3 - 911 y_a3_proc_3 >= -1304
 c368: u_a11 - u_a3 - 1284 y_a3_proc_1 >= -2589
 c369: u_a3 - u_a11 - 760 y_a11_proc_0 >= -1267
 c370: u_a3 - u_a11 - 1117 y_a11_proc_2 >= -2552
 c371: u_a3 - u_a11 - 550 y_a11_proc_3 >= -1267
 c372: u_a3 - u_a11 - 863 y_a11_proc_1 >= -2552
 c373: u_a12 - u_a3 - 827 y_a3_proc_0 >= -1267
 c374: u_a12 - u_a3 - 760 y_a3_proc_2 >= -2552
 c375: u_a12 - u_a3 - 911 y_a3_proc_3 >= -1267
 c376: u_a12 - u_a3 - 1284 y_a3_proc_1 >= -2552
 c377: u_a3 - u_a12 - 1118 y_a12_proc_0 >= -1304
 c378: u_a3 - u_a12 - 751 y_a12_proc_2 >= -2589
 c379: u_a3 - u_a12 - 663 y_a12_proc_3 >= -1304
 c380: u_a3 - u_a12 - 1231 y_a12_proc_1 >= -2589
 c381: u_a13 - u_a3 - 827 y_a3_proc_0 >= -1
 c382: u_a13 - u_a3 - 760 y_a3_proc_2 >= -2571
 c383: u_a13 - u_a3 - 911 y_a3_proc_3 >= -2571
 c384: u_a13 - u_a3 - 1284 y_a3_proc_1 >= -2571
 c385: u_a3 - u_a13 - 723 y_a13_proc_0 >= 0
 c386: u_a3 - u_a13 - 812 y_a13_proc_2 >= -2570
 c387: u_a3 - u_a13 - 1073 y_a13_proc_3 >= -2570
 c388: u_a3 - u_a13 - 742 y_a13_proc_1 >= -2570
 c389: u_a14 - u_a3 - 760 y_a3_proc_2 >= -2589
 c390: u_a14 - u_a3 - 911 y_a3_proc_3 >= -2589
 c391: u_a14 - u_a3 - 1284 y_a3_proc_1 >= -1304
 c392: u_a3 - u_a14 - 587 y_a14_proc_2 >= -2552
 c393: u_a3 - u_a14 - 814 y_a14_proc_3 >= -2552
 c394: u_a3 - u_a14 - 1209 y_a14_proc_1 >= -1267
 c395: u_a5 - u_a4 - 783 y_a4_proc_2 >= -2589
 c396: u_a5 - u_a4 - 801 y_a4_proc_1 >= -1304
 c397: u_a4 - u_a5 - 1157 y_a5_proc_2 >= -2552
 c398: u_a4 - u_a5 - 755 y_a5_proc_1 >= -1267
 c399: u_a6 - u_a4 - 866 y_a4_proc_3 >= 0
 c400: u_a6 - u_a4 - 801 y_a4_proc_1 >= -2570
 c401: u_a4 - u_a6 - 518 y_a6_proc_3 >= -1
 c402: u_a4 - u_a6 - 917 y_a6_proc_1 >= -2571
 c403: u_a7 - u_a4 - 783 y_a4_proc_2 >= -1304
 c404: u_a7 - u_a4 - 866 y_a4_proc_3 >= -1304
 c405: u_a7 - u_a4 - 801 y_a4_proc_1 >= -2589
 c406: u_a4 - u_a7 - 494 y_a7_proc_2 >= -1267
 c407: u_a4 - u_a7 - 757 y_a7_proc_3 >= -1267
 c408: u_a4 - u_a7 - 1088 y_a7_proc_1 >= -2552
 c409: u_a8 - u_a4 - 783 y_a4_proc_2 >= -1304
 c410: u_a8 - u_a4 - 866 y_a4_proc_3 >= -1304
 c411: u_a8 - u_a4 - 801 y_a4_proc_1 >= -2589
 c412: u_a4 - u_a8 - 255 y_a8_proc_2 >= -1267
 c413: u_a4 - u_a8 - 1226 y_a8_proc_3 >= -1267
 c414: u_a4 - u_a8 - 486 y_a8_proc_1 >= -2552
 c415: u_a9 - u_a4 - 783 y_a4_proc_2 >= -2589
 c416: u_a9 - u_a4 - 866 y_a4_proc_3 >= -1304
 c417: u_a9 - u_a4 - 801 y_a4_proc_1 >= -2589
 c418: u_a4 - u_a9 - 860 y_a9_proc_2 >= -2552
 c419: u_a4 - u_a9 - 843 y_a9_proc_3 >= -1267
 c420: u_a4 - u_a9 - 910 y_a9_proc_1 >= -2552
 c421: u_a10 - u_a4 - 783 y_a4_proc_2 >= -2589
 c422: u_a10 - u_a4 - 866 y_a4_proc_3 >= -1304
 c423: u_a10 - u_a4 - 801 y_a4_proc_1 >= -1304
 c424: u_a4 - u_a10 - 707 y_a10_proc_2 >= -2552
 c425: u_a4 - u_a10 - 940 y_a10_proc_3 >= -1267
 c426: u_a4 - u_a10 - 1130 y_a10_proc_1 >= -1267
 c427: u_a11 - u_a4 - 783 y_a4_proc_2 >= -2571
 c428: u_a11 - u_a4 - 866 y_a4_proc_3 >= -1
 c429: u_a11 - u_a4 - 801 y_a4_proc_1 >= -2571
 c430: u_a4 - u_a11 - 1117 y_a11_proc_2 >= -2570
 c431: u_a4 - u_a11 - 550 y_a11_proc_3 >= 0
 c432: u_a4 - u_a11 - 863 y_a11_proc_1 >= -2570
 c433: u_a12 - u_a4 - 783 y_a4_proc_2 >= -2571
 c434: u_a12 - u_a4 - 866 y_a4_proc_3 >= -1
 c435: u_a12 - u_a4 - 801 y_a4_proc_1 >= -2571
 c436: u_a4 - u_a12 - 751 y_a12_proc_2 >= -2570
 c437: u_a4 - u_a12 - 663 y_a12_proc_3 >= 0
 c438: u_a4 - u_a12 - 1231 y_a12_proc_1 >= -2570
 c439: u_a13 - u_a4 - 783 y_a4_proc_2 >= -2589
 c440: u_a13 - u_a4 - 866 y_a4_proc_3 >= -1304
 c441: u_a13 - u_a4 - 801 y_a4_proc_1 >= -2589
 c442: u_a4 - u_a13 - 812 y_a13_proc_2 >= -2552
 c443: u_a4 - u_a13 - 1073 y_a13_proc_3 >= -1267
 c444: u_a4 - u_a13 - 742 y_a13_proc_1 >= -2552
 c445: u_a14 - u_a4 - 783 y_a4_proc_2 >= -2589
 c446: u_a14 - u_a4 - 866 y_a4_proc_3 >= -1304
 c447: u_a14 - u_a4 - 801 y_a4_proc_1 >= -1304
 c448: u_a4 - u_a14 - 587 y_a14_proc_2 >= -2552
 c449: u_a4 - u_a14 - 814 y_a14_proc_3 >= -1267
 c450: u_a4 - u_a14 - 1209 y_a14_proc_1 >= -1267
 c451: u_a6 - u_a5 - 831 y_a5_proc_0 >= -2589
 c452: u_a6 - u_a5 - 755 y_a5_proc_1 >= -1304
 c453: u_a5 - u_a6 - 1100 y_a6_proc_0 >= -2552
 c454: u_a5 - u_a6 - 917 y_a6_proc_1 >= -1267
 c455: u_a7 - u_a5 - 831 y_a5_proc_0 >= -2589
 c456: u_a7 - u_a5 - 1157 y_a5_proc_2 >= -1304
 c457: u_a7 - u_a5 - 755 y_a5_proc_1 >= -1304
 c458: u_a5 - u_a7 - 602 y_a7_proc_0 >= -2552
 c459: u_a5 - u_a7 - 494 y_a7_proc_2 >= -1267
 c460: u_a5 - u_a7 - 1088 y_a7_proc_1 >= -1267
 c461: u_a8 - u_a5 - 831 y_a5_proc_0 >= -2552
 c462: u_a8 - u_a5 - 1157 y_a5_proc_2 >= -1267
 c463: u_a8 - u_a5 - 755 y_a5_proc_1 >= -1267
 c464: u_a5 - u_a8 - 741 y_a8_proc_0 >= -2589
 c465: u_a5 - u_a8 - 255 y_a8_proc_2 >= -1304
 c466: u_a5 - u_a8 - 486 y_a8_proc_1 >= -1304
 c467: u_a9 - u_a5 - 831 y_a5_proc_0 >= -1267
 c468: u_a9 - u_a5 - 1157 y_a5_proc_2 >= -2552
 c469: u_a9 - u_a5 - 755 y_a5_proc_1 >= -1267
 c470: u_a5 - u_a9 - 360 y_a9_proc_0 >= -1304
 c471: u_a5 - u_a9 - 860 y_a9_proc_2 >= -2589
 c472: u_a5 - u_a9 - 910 y_a9_proc_1 >= -1304
 c473: u_a10 - u_a5 - 831 y_a5_proc_0 >= -2571
 c474: u_a10 - u_a5 - 1157 y_a5_proc_2 >= -2571
 c475: u_a10 - u_a5 - 755 y_a5_proc_1 >= -1
 c476: u_a5 - u_a10 - 1285 y_a10_proc_0 >= -2570
 c477: u_a5 - u_a10 - 707 y_a10_proc_2 >= -2570
 c478: u_a5 - u_a10 - 1130 y_a10_proc_1 >= 0
 c479: u_a11 - u_a5 - 831 y_a5_proc_0 >= -2589
 c480: u_a11 - u_a5 - 1157 y_a5_proc_2 >= -2589
 c481: u_a11 - u_a5 - 755 y_a5_proc_1 >= -1304
 c482: u_a5 - u_a11 - 760 y_a11_proc_0 >= -2552
 c483: u_a5 - u_a11 - 1117 y_a11_proc_2 >= -2552
 c484: u_a5 - u_a11 - 863 y_a11_proc_1 >= -1267
 c485: u_a12 - u_a5 - 831 y_a5_proc_0 >= -2589
 c486: u_a12 - u_a5 - 1157 y_a5_proc_2 >= -2589
 c487: u_a12 - u_a5 - 755 y_a5_proc_1 >= -1304
 c488: u_a5 - u_a12 - 1118 y_a12_proc_0 >= -2552
 c489: u_a5 - u_a12 - 751 y_a12_proc_2 >= -2552
 c490: u_a5 - u_a12 - 1231 y_a12_proc_1 >= -1267
 c491: u_a13 - u_a5 - 831 y_a5_proc_0 >= -1304
 c492: u_a13 - u_a5 - 1157 y_a5_proc_2 >= -2589
 c493: u_a13 - u_a5 - 755 y_a5_proc_1 >= -1304
 c494: u_a5 - u_a13 - 723 y_a13_proc_0 >= -1267
 c495: u_a5 - u_a13 - 812 y_a13_proc_2 >= -2552
 c496: u_a5 - u_a13 - 742 y_a13_proc_1 >= -1267
 c497: u_a14 - u_a5 - 1157 y_a5_proc_2 >= -2571
 c498: u_a14 - u_a5 - 755 y_a5_proc_1 >= -1
 c499: u_a5 - u_a14 - 587 y_a14_proc_2 >= -2570
 c500: u_a5 - u_a14 - 1209 y_a14_proc_1 >= 0
 c501: u_a7 - u_a6 - 1100 y_a6_proc_0 >= -2589
 c502: u_a7 - u_a6 - 518 y_a6_proc_3 >= -1304
 c503: u_a7 - u_a6 - 917 y_a6_proc_1 >= -2589
 c504: u_a6 - u_a7 - 602 y_a7_proc_0 >= -2552
 c505: u_a6 - u_a7 - 757 y_a7_proc_3 >= -1267
 c506: u_a6 - u_a7 - 1088 y_a7_proc_1 >= -2552
 c507: u_a8 - u_a6 - 1100 y_a6_proc_0 >= -2589
 c508: u_a8 - u_a6 - 518 y_a6_proc_3 >= -1304
 c509: u_a8 - u_a6 - 917 y_a6_proc_1 >= -2589
 c510: u_a6 - u_a8 - 741 y_a8_proc_0 >= -2552
 c511: u_a6 - u_a8 - 1226 y_a8_proc_3 >= -1267
 c512: u_a6 - u_a8 - 486 y_a8_proc_1 >= -2552
 c513: u_a9 - u_a6 - 1100 y_a6_proc_0 >= -1304
 c514: u_a9 - u_a6 - 518 y_a6_proc_3 >= -1304
 c515: u_a9 - u_a6 - 917 y_a6_proc_1 >= -2589
 c516: u_a6 - u_a9 - 360 y_a9_proc_0 >= -1267
 c517: u_a6 - u_a9 - 843 y_a9_proc_3 >= -1267
 c518: u_a6 - u_a9 - 910 y_a9_proc_1 >= -2552
 c519: u_a10 - u_a6 - 1100 y_a6_proc_0 >= -2589
 c520: u_a10 - u_a6 - 518 y_a6_proc_3 >= -1304
 c521: u_a10 - u_a6 - 917 y_a6_proc_1 >= -1304
 c522: u_a6 - u_a10 - 1285 y_a10_proc_0 >= -2552
 c523: u_a6 - u_a10 - 940 y_a10_proc_3 >= -1267
 c524: u_a6 - u_a10 - 1130 y_a10_proc_1 >= -1267
 c525: u_a11 - u_a6 - 1100 y_a6_proc_0 >= -2571
 c526: u_a11 - u_a6 - 518 y_a6_proc_3 >= -1
 c527: u_a11 - u_a6 - 917 y_a6_proc_1 >= -2571
 c528: u_a6 - u_a11 - 760 y_a11_proc_0 >= -2570
 c529: u_a6 - u_a11 - 550 y_a11_proc_3 >= 0
 c530: u_a6 - u_a11 - 863 y_a11_proc_1 >= -2570
 c531: u_a12 - u_a6 - 1100 y_a6_proc_0 >= -2571
 c532: u_a12 - u_a6 - 518 y_a6_proc_3 >= -1
 c533: u_a12 - u_a6 - 917 y_a6_proc_1 >= -2571
 c534: u_a6 - u_a12 - 1118 y_a12_proc_0 >= -2570
 c535: u_a6 - u_a12 - 663 y_a12_proc_3 >= 0
 c536: u_a6 - u_a12 - 1231 y_a12_proc_1 >= -2570
 c537: u_a13 - u_a6 - 1100 y_a6_proc_0 >= -1304
 c538: u_a13 - u_a6 - 518 y_a6_proc_3 >= -1304
 c539: u_a13 - u_a6 - 917 y_a6_proc_1 >= -2589
 c540: u_a6 - u_a13 - 723 y_a13_proc_0 >= -1267
 c541: u_a6 - u_a13 - 1073 y_a13_proc_3 >= -1267
 c542: u_a6 - u_a13 - 742 y_a13_proc_1 >= -2552
 c543: u_a14 - u_a6 - 518 y_a6_proc_3 >= -1304
 c544: u_a14 - u_a6 - 917 y_a6_proc_1 >= -1304
 c545: u_a6 - u_a14 - 814 y_a14_proc_3 >= -1267
 c546: u_a6 - u_a14 - 1209 y_a14_proc_1 >= -1267
 c547: u_a8 - u_a7 - 602 y_a7_proc_0 >= -2571
 c548: u_a8 - u_a7 - 494 y_a7_proc_2 >= -1
 c549: u_a8 - u_a7 - 757 y_a7_proc_3 >= -2571
 c550: u_a8 - u_a7 - 1088 y_a7_proc_1 >= -2571
 c551: u_a7 - u_a8 - 741 y_a8_proc_0 >= -2570
 c552: u_a7 - u_a8 - 255 y_a8_proc_2 >= 0
 c553: u_a7 - u_a8 - 1226 y_a8_proc_3 >= -2570
 c554: u_a7 - u_a8 - 486 y_a8_proc_1 >= -2570
 c555: u_a9 - u_a7 - 602 y_a7_proc_0 >= -1304
 c556: u_a9 - u_a7 - 494 y_a7_proc_2 >= -1304
 c557: u_a9 - u_a7 - 757 y_a7_proc_3 >= -2589
 c558: u_a9 - u_a7 - 1088 y_a7_proc_1 >= -2589
 c559: u_a7 - u_a9 - 360 y_a9_proc_0 >= -1267
 c560: u_a7 - u_a9 - 860 y_a9_proc_2 >= -1267
 c561: u_a7 - u_a9 - 843 y_a9_proc_3 >= -2552
 c562: u_a7 - u_a9 - 910 y_a9_proc_1 >= -2552
 c563: u_a10 - u_a7 - 602 y_a7_proc_0 >= -2589
 c564: u_a10 - u_a7 - 494 y_a7_proc_2 >= -1304
 c565: u_a10 - u_a7 - 757 y_a7_proc_3 >= -2589
 c566: u_a10 - u_a7 - 1088 y_a7_proc_1 >= -1304
 c567: u_a7 - u_a10 - 1285 y_a10_proc_0 >= -2552
 c568: u_a7 - u_a10 - 707 y_a10_proc_2 >= -1267
 c569: u_a7 - u_a10 - 940 y_a10_proc_3 >= -2552
 c570: u_a7 - u_a10 - 1130 y_a10_proc_1 >= -1267
 c571: u_a11 - u_a7 - 602 y_a7_proc_0 >= -2589
 c572: u_a11 - u_a7 - 494 y_a7_proc_2 >= -1304
 c573: u_a11 - u_a7 - 757 y_a7_proc_3 >= -1304
 c574: u_a11 - u_a7 - 1088 y_a7_proc_1 >= -2589
 c575: u_a7 - u_a11 - 760 y_a11_proc_0 >= -2552
 c576: u_a7 - u_a11 - 1117 y_a11_proc_2 >= -1267
 c577: u_a7 - u_a11 - 550 y_a11_proc_3 >= -1267
 c578: u_a7 - u_a11 - 863 y_a11_proc_1 >= -2552
 c579: u_a12 - u_a7 - 602 y_a7_proc_0 >= -2589
 c580: u_a12 - u_a7 - 494 y_a7_proc_2 >= -1304
 c581: u_a12 - u_a7 - 757 y_a7_proc_3 >= -1304
 c582: u_a12 - u_a7 - 1088 y_a7_proc_1 >= -2589
 c583: u_a7 - u_a12 - 1118 y_a12_proc_0 >= -2552
 c584: u_a7 - u_a12 - 751 y_a12_proc_2 >= -1267
 c585: u_a7 - u_a12 - 663 y_a12_proc_3 >= -1267
 c586: u_a7 - u_a12 - 1231 y_a12_proc_1 >= -2552
 c587: u_a13 - u_a7 - 602 y_a7_proc_0 >= -1304
 c588: u_a13 - u_a7 - 494 y_a7_proc_2 >= -1304
 c589: u_a13 - u_a7 - 757 y_a7_proc_3 >= -2589
 c590: u_a13 - u_a7 - 1088 y_a7_proc_1 >= -2589
 c591: u_a7 - u_a13 - 723 y_a13_proc_0 >= -1267
 c592: u_a7 - u_a13 - 812 y_a13_proc_2 >= -1267
 c593: u_a7 - u_a13 - 1073 y_a13_proc_3 >= -2552
 c594: u_a7 - u_a13 - 742 y_a13_proc_1 >= -2552
 c595: u_a14 - u_a7 - 494 y_a7_proc_2 >= -1304
 c596: u_a14 - u_a7 - 757 y_a7_proc_3 >= -2589
 c597: u_a14 - u_a7 - 1088 y_a7_proc_1 >= -1304
 c598: u_a7 - u_a14 - 587 y_a14_proc_2 >= -1267
 c599: u_a7 - u_a14 - 814 y_a14_proc_3 >= -2552
 c600: u_a7 - u_a14 - 1209 y_a14_proc_1 >= -1267
 c601: u_a9 - u_a8 - 741 y_a8_proc_0 >= -1267
 c602: u_a9 - u_a8 - 255 y_a8_proc_2 >= -1267
 c603: u_a9 - u_a8 - 1226 y_a8_proc_3 >= -2552
 c604: u_a9 - u_a8 - 486 y_a8_proc_1 >= -2552
 c605: u_a8 - u_a9 - 360 y_a9_proc_0 >= -1304
 c606: u_a8 - u_a9 - 860 y_a9_proc_2 >= -1304
 c607: u_a8 - u_a9 - 843 y_a9_proc_3 >= -2589
 c608: u_a8 - u_a9 - 910 y_a9_proc_1 >= -2589
 c609: u_a10 - u_a8 - 741 y_a8_proc_0 >= -2589
 c610: u_a10 - u_a8 - 255 y_a8_proc_2 >= -1304
 c611: u_a10 - u_a8 - 1226 y_a8_proc_3 >= -2589
 c612: u_a10 - u_a8 - 486 y_a8_proc_1 >= -1304
 c613: u_a8 - u_a10 - 1285 y_a10_proc_0 >= -2552
 c614: u_a8 - u_a10 - 707 y_a10_proc_2 >= -1267
 c615: u_a8 - u_a10 - 940 y_a10_proc_3 >= -2552
 c616: u_a8 - u_a10 - 1130 y_a10_proc_1 >= -1267
 c617: u_a11 - u_a8 - 741 y_a8_proc_0 >= -2589
 c618: u_a11 - u_a8 - 255 y_a8_proc_2 >= -1304
 c619: u_a11 - u_a8 - 1226 y_a8_proc_3 >= -1304
 c620: u_a11 - u_a8 - 486 y_a8_proc_1 >= -2589
 c621: u_a8 - u_a11 - 760 y_a11_proc_0 >= -2552
 c622: u_a8 - u_a11 - 1117 y_a11_proc_2 >= -1267
 c623: u_a8 - u_a11 - 550 y_a11_proc_3 >= -1267
 c624: u_a8 - u_a11 - 863 y_a11_proc_1 >= -2552
 c625: u_a12 - u_a8 - 741 y_a8_proc_0 >= -2589
 c626: u_a12 - u_a8 - 255 y_a8_proc_2 >= -1304
 c627: u_a12 - u_a8 - 1226 y_a8_proc_3 >= -1304
 c628: u_a12 - u_a8 - 486 y_a8_proc_1 >= -2589
 c629: u_a8 - u_a12 - 1118 y_a12_proc_0 >= -2552
 c630: u_a8 - u_a12 - 751 y_a12_proc_2 >= -1267
 c631: u_a8 - u_a12 - 663 y_a12_proc_3 >= -1267
 c632: u_a8 - u_a12 - 1231 y_a12_proc_1 >= -2552
 c633: u_a13 - u_a8 - 741 y_a8_proc_0 >= -1304
 c634: u_a13 - u_a8 - 255 y_a8_proc_2 >= -1304
 c635: u_a13 - u_a8 - 1226 y_a8_proc_3 >= -2589
 c636: u_a13 - u_a8 - 486 y_a8_proc_1 >= -2589
 c637: u_a8 - u_a13 - 723 y_a13_proc_0 >= -1267
 c638: u_a8 - u_a13 - 812 y_a13_proc_2 >= -1267
 c639: u_a8 - u_a13 - 1073 y_a13_proc_3 >= -2552
 c640: u_a8 - u_a13 - 742 y_a13_proc_1 >= -2552
 c641: u_a14 - u_a8 - 255 y_a8_proc_2 >= -1304
 c642: u_a14 - u_a8 - 1226 y_a8_proc_3 >= -2589
 c643: u_a14 - u_a8 - 486 y_a8_proc_1 >= -1304
 c644: u_a8 - u_a14 - 587 y_a14_proc_2 >= -1267
 c645: u_a8 - u_a14 - 814 y_a14_proc_3 >= -2552
 c646: u_a8 - u_a14 - 1209 y_a14_proc_1 >= -1267
 c647: u_a10 - u_a9 - 360 y_a9_proc_0 >= -1304
 c648: u_a10 - u_a9 - 860 y_a9_proc_2 >= -2589
 c649: u_a10 - u_a9 - 843 y_a9_proc_3 >= -2589
 c650: u_a10 - u_a9 - 910 y_a9_proc_1 >= -1304
 c651: u_a9 - u_a10 - 1285 y_a10_proc_0 >= -1267
 c652: u_a9 - u_a10 - 707 y_a10_proc_2 >= -2552
 c653: u_a9 - u_a10 - 940 y_a10_proc_3 >= -2552
 c654: u_a9 - u_a10 - 1130 y_a10_proc_1 >= -1267
 c655: u_a11 - u_a9 - 360 y_a9_proc_0 >= -1304
 c656: u_a11 - u_a9 - 860 y_a9_proc_2 >= -2589
 c657: u_a11 - u_a9 - 843 y_a9_proc_3 >= -1304
 c658: u_a11 - u_a9 - 910 y_a9_proc_1 >= -2589
 c659: u_a9 - u_a11 - 760 y_a11_proc_0 >= -1267
 c660: u_a9 - u_a11 - 1117 y_a11_proc_2 >= -2552
 c661: u_a9 - u_a11 - 550 y_a11_proc_3 >= -1267
 c662: u_a9 - u_a11 - 863 y_a11_proc_1 >= -2552
 c663: u_a12 - u_a9 - 360 y_a9_proc_0 >= -1304
 c664: u_a12 - u_a9 - 860 y_a9_proc_2 >= -2589
 c665: u_a12 - u_a9 - 843 y_a9_proc_3 >= -1304
 c666: u_a12 - u_a9 - 910 y_a9_proc_1 >= -2589
 c667: u_a9 - u_a12 - 1118 y_a12_proc_0 >= -1267
 c668: u_a9 - u_a12 - 751 y_a12_proc_2 >= -2552
 c669: u_a9 - u_a12 - 663 y_a12_proc_3 >= -1267
 c670: u_a9 - u_a12 - 1231 y_a12_proc_1 >= -2552
 c671: u_a13 - u_a9 - 360 y_a9_proc_0 >= -1
 c672: u_a13 - u_a9 - 860 y_a9_proc_2 >= -2571
 c673: u_a13 - u_a9 - 843 y_a9_proc_3 >= -2571
 c674: u_a13 - u_a9 - 910 y_a9_proc_1 >= -2571
 c675: u_a9 - u_a13 - 723 y_a13_proc_0 >= 0
 c676: u_a9 - u_a13 - 812 y_a13_proc_2 >= -2570
 c677: u_a9 - u_a13 - 1073 y_a13_proc_3 >= -2570
 c678: u_a9 - u_a13 - 742 y_a13_proc_1 >= -2570
 c679: u_a14 - u_a9 - 860 y_a9_proc_2 >= -2552
 c680: u_a14 - u_a9 - 843 y_a9_proc_3 >= -2552
 c681: u_a14 - u_a9 - 910 y_a9_proc_1 >= -1267
 c682: u_a9 - u_a14 - 587 y_a14_proc_2 >= -2589
 c683: u_a9 - u_a14 - 814 y_a14_proc_3 >= -2589
 c684: u_a9 - u_a14 - 1209 y_a14_proc_1 >= -1304
 c685: u_a11 - u_a10 - 1285 y_a10_proc_0 >= -2589
 c686: u_a11 - u_a10 - 707 y_a10_proc_2 >= -2589
 c687: u_a11 - u_a10 - 940 y_a10_proc_3 >= -1304
 c688: u_a11 - u_a10 - 1130 y_a10_proc_1 >= -1304
 c689: u_a10 - u_a11 - 760 y_a11_proc_0 >= -2552
 c690: u_a10 - u_a11 - 1117 y_a11_proc_2 >= -2552
 c691: u_a10 - u_a11 - 550 y_a11_proc_3 >= -1267
 c692: u_a10 - u_a11 - 863 y_a11_proc_1 >= -1267
 c693: u_a12 - u_a10 - 1285 y_a10_proc_0 >= -2552
 c694: u_a12 - u_a10 - 707 y_a10_proc_2 >= -2552
 c695: u_a12 - u_a10 - 940 y_a10_proc_3 >= -1267
 c696: u_a12 - u_a10 - 1130 y_a10_proc_1 >= -1267
 c697: u_a10 - u_a12 - 1118 y_a12_proc_0 >= -2589
 c698: u_a10 - u_a12 - 751 y_a12_proc_2 >= -2589
 c699: u_a10 - u_a12 - 663 y_a12_proc_3 >= -1304
 c700: u_a10 - u_a12 - 1231 y_a12_proc_1 >= -1304
 c701: u_a13 - u_a10 - 1285 y_a10_proc_0 >= -1267
 c702: u_a13 - u_a10 - 707 y_a10_proc_2 >= -2552
 c703: u_a13 - u_a10 - 940 y_a10_proc_3 >= -2552
 c704: u_a13 - u_a10 - 1130 y_a10_proc_1 >= -1267
 c705: u_a10 - u_a13 - 723 y_a13_proc_0 >= -1304
 c706: u_a10 - u_a13 - 812 y_a13_proc_2 >= -2589
 c707: u_a10 - u_a13 - 1073 y_a13_proc_3 >= -2589
 c708: u_a10 - u_a13 - 742 y_a13_proc_1 >= -1304
 c709: u_a14 - u_a10 - 707 y_a10_proc_2 >= -2570
 c710: u_a14 - u_a10 - 940 y_a10_proc_3 >= -2570
 c711: u_a14 - u_a10 - 1130 y_a10_proc_1 >= 0
 c712: u_a10 - u_a14 - 587 y_a14_proc_2 >= -2571
 c713: u_a10 - u_a14 - 814 y_a14_proc_3 >= -2571
 c714: u_a10 - u_a14 - 1209 y_a14_proc_1 >= -1
 c715: u_a12 - u_a11 - 760 y_a11_proc_0 >= -2570
 c716: u_a12 - u_a11 - 1117 y_a11_proc_2 >= -2570
 c717: u_a12 - u_a11 - 550 y_a11_proc_3 >= 0
 c718: u_a12 - u_a11 - 863 y_a11_proc_1 >= -2570
 c719: u_a11 - u_a12 - 1118 y_a12_proc_0 >= -2571
 c720: u_a11 - u_a12 - 751 y_a12_proc_2 >= -2571
 c721: u_a11 - u_a12 - 663 y_a12_proc_3 >= -1
 c722: u_a11 - u_a12 - 1231 y_a12_proc_1 >= -2571
 c723: u_a13 - u_a11 - 760 y_a11_proc_0 >= -1304
 c724: u_a13 - u_a11 - 1117 y_a11_proc_2 >= -2589
 c725: u_a13 - u_a11 - 550 y_a11_proc_3 >= -1304
 c726: u_a13 - u_a11 - 863 y_a11_proc_1 >= -2589
 c727: u_a11 - u_a13 - 723 y_a13_proc_0 >= -1267
 c728: u_a11 - u_a13 - 812 y_a13_proc_2 >= -2552
 c729: u_a11 - u_a13 - 1073 y_a13_proc_3 >= -1267
 c730: u_a11 - u_a13 - 742 y_a13_proc_1 >= -2552
 c731: u_a14 - u_a11 - 1117 y_a11_proc_2 >= -2589
 c732: u_a14 - u_a11 - 550 y_a11_proc_3 >= -1304
 c733: u_a14 - u_a11 - 863 y_a11_proc_1 >= -1304
 c734: u_a11 - u_a14 - 587 y_a14_proc_2 >= -2552
 c735: u_a11 - u_a14 - 814 y_a14_proc_3 >= -1267
 c736: u_a11 - u_a14 - 1209 y_a14_proc_1 >= -1267
 c737: u_a13 - u_a12 - 1118 y_a12_proc_0 >= -1304
 c738: u_a13 - u_a12 - 751 y_a12_proc_2 >= -2589
 c739: u_a13 - u_a12 - 663 y_a12_proc_3 >= -1304
 c740: u_a13 - u_a12 - 1231 y_a12_proc_1 >= -2589
 c741: u_a12 - u_a13 - 723 y_a13_proc_0 >= -1267
 c742: u_a12 - u_a13 - 812 y_a13_proc_2 >= -2552
 c743: u_a12 - u_a13 - 1073 y_a13_proc_3 >= -1267
 c744: u_a12 - u_a13 - 742 y_a13_proc_1 >= -2552
 c745: u_a14 - u_a12 - 751 y_a12_proc_2 >= -2589
 c746: u_a14 - u_a12 - 663 y_a12_proc_3 >= -1304
 c747: u_a14 - u_a12 - 1231 y_a12_proc_1 >= -1304
 c748: u_a12 - u_a14 - 587 y_a14_proc_2 >= -2552
 c749: u_a12 - u_a14 - 814 y_a14_proc_3 >= -1267
 c750: u_a12 - u_a14 - 1209 y_a14_proc_1 >= -1267
 c751: u_a14 - u_a13 - 812 y_a13_proc_2 >= -2589
 c752: u_a14 - u_a13 - 1073 y_a13_proc_3 >= -2589
 c753: u_a14 - u_a13 - 742 y_a13_proc_1 >= -1304
 c754: u_a13 - u_a14 - 587 y_a14_proc_2 >= -2552
 c755: u_a13 - u_a14 - 814 y_a14_proc_3 >= -2552
 c756: u_a13 - u_a14 - 1209 y_a14_proc_1 >= -1267

Bounds
End
